; benchmark generated from python API
(set-info :status unknown)
(declare-datatypes ((RealState 0)) (((RMk1 (rval1 Real)) (RMk2 (rval2 Real)))))
 (declare-fun ep () Real)
(declare-fun V () Real)
(declare-fun v2uscore1dollarskuscore95 () Real)
(declare-fun v1uscore1dollarskuscore95 () Real)
(declare-fun t98uscore0 () Real)
(declare-fun x2uscore1dollarskuscore72 () Real)
(declare-fun xI2 () Real)
(declare-fun A () Real)
(declare-fun v2 () Real)
(declare-fun v1 () Real)
(declare-fun B () Real)
(declare-fun x2 () Real)
(declare-fun I2 () Real)
(declare-fun x1 () Real)
(declare-fun xI1 () Real)
(declare-fun I1 () Real)
(declare-fun I1uscore1dollarskuscore95 () Real)
(declare-fun x1uscore1dollarskuscore78 () Real)
(declare-fun I2uscore1dollarskuscore95 () Real)
(assert
 (let (($x238 (exists ((ts98uscore0_st RealState) (val!71 Real) )(let (($x14 (or (= 2.0 2.0) (= 0.0 2.0))))
 (let (($x204 (and (>= v1uscore1dollarskuscore95 0.0) (<= v1uscore1dollarskuscore95 V))))
 (let (($x218 (and (and $x204 (>= v2uscore1dollarskuscore95 0.0)) (<= v2uscore1dollarskuscore95 V))))
 (let (($x210 (=> (and (<= 0.0 (rval2 ts98uscore0_st)) (<= (rval2 ts98uscore0_st) t98uscore0)) (and $x218 (<= (+ (rval2 ts98uscore0_st) 0.0) ep)))))
 (let (($x147 (>= t98uscore0 0.0)))
 (let (($x170 (= xI2 x2uscore1dollarskuscore72)))
 (let (($x46 (and (= v2uscore1dollarskuscore95 0.0) (= v1uscore1dollarskuscore95 V))))
 (let (($x212 (and (and $x46 (= xI1 x1uscore1dollarskuscore78)) (= I2uscore1dollarskuscore95 2.0))))
 (let (($x106 (and (and $x212 (= I1uscore1dollarskuscore95 1.0)) (< xI1 x1uscore1dollarskuscore78))))
 (let (($x225 (and (and (and $x106 (= I1uscore1dollarskuscore95 2.0)) (= I1 2.0)) (< xI1 x1))))
 (let (($x173 (and (and (and $x225 (= I2 2.0)) (< xI2 x2)) (> B 0.0))))
 (let (($x143 (and (and (and $x173 (>= v1 0.0)) (<= v1 V)) (>= v2 0.0))))
 (let (($x113 (and (and (and (and $x143 (<= v2 V)) (>= A 0.0)) (> V 0.0)) (> ep 0.0))))
 (let (($x94 (not (= ts98uscore0_st (RMk1 val!71)))))
 (and $x94 (=> $x113 (or $x170 (=> (and $x147 $x210) $x14)))))))))))))))))))
 ))
 (not $x238)))
(check-sat)
